c Sudoku solution
p cnf 729 0
224 0
235 0
269 0
282 0
332 0
364 0
376 0
391 0
442 0
484 0
514 0
551 0
629 0
665 0
697 0
722 0
612 0
781 0
815 0
847 0
874 0
194 0
886 0
938 0
734 0
956 0
944 0
716 0
777 0
654 0
246 0
211 0
141 0
636 0
671 0
126 0
257 0
989 0
839 0
431 0
179 0
319 0
763 0
533 0
137 0
387 0
185 0
683 0
453 0
648 0
549 0
499 0
596 0
572 0
466 0
567 0
343 0
355 0
113 0
328 0
917 0
418 0
427 0
525 0
475 0
588 0
745 0
759 0
798 0
973 0
892 0
995 0
858 0
861 0
962 0
823 0
921 0
152 0
168 0
278 0
293 0
